Route #1: 66 2 34 6 70 59 124 50
Route #2: 62 117 109 63 22 65 4
Route #3: 23 116 28 15 17 49
Route #4: 8 45 20
Route #5: 108 27 55 1 46 79 36 118 77 84
Route #6: 123 92 87 114 11 19 9 78
Route #7: 3 14 24
Route #8: 96 60
Route #9: 85 30 25 47 101 121
Route #10: 120 32 40
Route #11: 51 105 89 88 115
Route #12: 73 83 76
Route #13: 31 52 44 74 97
Route #14: 56 82
Route #15: 12 103 54
Route #16: 16 99 112
Route #17: 35 75
Route #18: 37 53 94
Route #19: 110 122 61
Route #20: 98 71 29
Route #21: 18 10 104 68
Route #22: 100 69 119
Route #23: 91 57 39
Route #24: 5 33 113
Route #25: 21 48 41 95
Route #26: 64 7 72 67 107 80 58
Route #27: 86 106 43
Route #28: 26 93
Route #29: 38 111
Route #30: 102 90 81 42 13
